instances/p2/p2_15_5-4.dzn
Alphabet = {A,C,G,T};
ns = 15;
nc = 5;
neighbours = [| I(T),I(T),I(C),I(G),I(A) | I(C),I(T),Null,Null,Null | I(T),I(C),I(G),I(A),Null | I(C),I(C),I(T),I(C),I(C) | I(A),I(A),I(A),Null,Null | I(A),Null,Null,Null,Null | I(T),I(A),Null,Null,Null | I(A),I(G),Null,Null,Null | I(G),Null,Null,Null,Null | I(T),Null,Null,Null,Null | I(C),I(C),Null,Null,Null | I(C),I(G),I(C),Null,Null | I(T),I(G),I(A),Null,Null | I(A),Null,Null,Null,Null | I(T),I(T),Null,Null,Null |];
