instances/p2/p2_15_5-4.txt
{
	"num_strings": 15,
	"alphabet": "ACGT",
	"strings": [
		"TTCGA",
		"CT",
		"TCGA",
		"CCTCC",
		"AAA",
		"A",
		"TA",
		"AG",
		"G",
		"T",
		"CC",
		"CGC",
		"TGA",
		"A",
		"TT"
	],
	"str_length":[5,2,4,5,3,1,2,2,1,1,2,3,3,1,2]
}